% Archivo de datos generado automáticamente
% MinExt - Minimización del Extremismo

n = 10;
m = 5;

% Distribución inicial de personas por opinión
p = [3, 2, 3, 1, 1];

% Valores de extremismo por opinión
ext = [0.966, 0.68, 0.928, 0.081, 0.286];

% Costos extra por mover hacia opinión inicialmente vacía
ce = [9.436, 14.027, 9.488, 7.753, 3.699];

% Matriz de costos de movimiento entre opiniones
c = array2d(1..m, 1..m, [0.0, 0.946, 2.389, 1.17, 4.058, 2.105, 0.0, 4.929, 4.666, 4.7, 3.326, 0.963, 0.0, 1.826, 0.944, 2.006, 3.954, 1.254, 0.0, 4.08, 3.893, 1.75, 1.198, 4.541, 0.0]);

% Restricciones de recursos
ct = 24.14;
maxM = 4;
